% demand
num_movements = 20;
loading_factor = [1300, 1950, 1600, 1050, 1300, 1700, 1550, 800, 1900, 1000, 1450, 1550, 1100, 1350, 1450, 1500, 1700, 1000, 1300, 1400];
pickup_time = [0, 0, 0, 1, 1, 1, 1, 2, 3, 3, 3, 3, 3, 4, 4, 4, 4, 4, 6, 6];
delivery_time = [2, 1, 1, 3, 3, 2, 2, 3, 4, 4, 4, 4, 4, 6, 8, 8, 5, 8, 7, 8];

% transporter definition
total_capacity = 7000;
num_decks = 3;
capacity = [3000, 1000, 3000];

% ways out of decks
num_ways_out = 1;
paths_out = array3d(decks, ways_out, decks, [
% ways out of deck d1
2, 3, 0, 

% ways out of deck d2
3, 0, 0, 

% ways out of deck d3
0, 0, 0,	

]);

